Sun 20 May 08:56:47 CEST 2018
CPXPARAM_TimeLimit                               45
CPXPARAM_Threads                                 4
CPXPARAM_MIP_Strategy_CallbackReducedLP          0
Tried aggregator 2 times.
MIP Presolve eliminated 81 rows and 84 columns.
Aggregator did 54 substitutions.
Reduced MIP has 78 rows, 85 columns, and 186 nonzeros.
Reduced MIP has 81 binaries, 4 generals, 0 SOSs, and 18 indicators.
Presolve time = 0.00 sec. (0.29 ticks)
Found incumbent of value 3.000000 after 0.00 sec. (0.74 ticks)
Probing time = 0.00 sec. (0.16 ticks)
Cover probing fixed 0 vars, tightened 4 bounds.
Tried aggregator 3 times.
MIP Presolve modified 18 coefficients.
Aggregator did 36 substitutions.
Reduced MIP has 51 rows, 49 columns, and 132 nonzeros.
Reduced MIP has 45 binaries, 4 generals, 0 SOSs, and 9 indicators.
Presolve time = 0.00 sec. (0.21 ticks)
Probing time = 0.00 sec. (0.07 ticks)
Tried aggregator 2 times.
Aggregator did 9 substitutions.
Reduced MIP has 42 rows, 40 columns, and 114 nonzeros.
Reduced MIP has 36 binaries, 4 generals, 0 SOSs, and 9 indicators.
Presolve time = 0.00 sec. (0.19 ticks)
Probing time = 0.00 sec. (0.05 ticks)
Clique table members: 75.
MIP emphasis: balance optimality and feasibility.
MIP search method: dynamic search.
Parallel mode: deterministic, using up to 4 threads.

Root node processing (before b&c):
  Real time             =    0.01 sec. (1.60 ticks)
Parallel b&c, 4 threads:
  Real time             =    0.00 sec. (0.00 ticks)
  Sync time (average)   =    0.00 sec.
  Wait time (average)   =    0.00 sec.
                          ------------
Total (root+branch&cut) =    0.01 sec. (1.60 ticks)
  | W
L | 0 1 2 
----------
0 | 1 2 3 
1 | . . . 
2 | . . . 

Boxes' corners:      (w,l)
    Box 1 is at 
        top left     (0,0)
        bottom right (0,0)

    Box 2 is at 
        top left     (1,0)
        bottom right (1,0)

    Box 3 is at 
        top left     (2,0)
        bottom right (2,0)

    Roll length used: 1
In 0 seconds
